SAT
96 -33 -99 98 74 93 62 -18 64 57 -14 36 -59 -51 -21 89 13 -84 -22 12 -70 31 72 2 7 -79 88 95 -78 35 -34 40 100 -8 63 75 -46 -60 66 38 11 29 -58 -19 -44 -77 30 87 20 54 23 9 -3 -26 83 -91 80 -1 39 17 -82 53 47 -86 24 -42 81 -61 -4 -41 -49 -48 45 6 28 55 90 76 32 56 -67 16 73 43 -68 25 -50 -69 -52 65 -71 -37 -92 -85 -5 -10 27 -15 97 -94 0
